Nb Se                                   
   1.00000000000000     
     3.4539380790817464    0.0000000000000000    0.0000000000000000
    -1.7269690395408732    2.9911981195832178    0.0000000000000000
     0.0000000000000000    0.0000000000000000   12.3810357446279173
   Nb   Se
     2     4
Direct
  0.0000000000000000  0.0000000000000000  0.2500000000000000
  0.0000000000000000  0.0000000000000000  0.7500000000000000
  0.3333333333333357  0.6666666666666643  0.1142635353823209
  0.6666666666666643  0.3333333333333357  0.8857364646176791
  0.6666666666666643  0.3333333333333357  0.6142635353823209
  0.3333333333333357  0.6666666666666643  0.3857364646176791
 
  0.00000000E+00  0.00000000E+00  0.00000000E+00
  0.00000000E+00  0.00000000E+00  0.00000000E+00
  0.00000000E+00  0.00000000E+00  0.00000000E+00
  0.00000000E+00  0.00000000E+00  0.00000000E+00
  0.00000000E+00  0.00000000E+00  0.00000000E+00
  0.00000000E+00  0.00000000E+00  0.00000000E+00
